language ESSENCE' 1.0

letting nnodes be 7
letting nrings be 4
letting capacity be 4
letting demand_ExplicitR3_Explicit be
        [[1, 2; int(1..2)], [1, 5; int(1..2)], [1, 7; int(1..2)], [2, 6; int(1..2)], [3, 4; int(1..2)],
         [3, 6; int(1..2)], [4, 5; int(1..2)], [5, 6; int(1..2)];
             int(1..8)]
$ Visualisation for demand_ExplicitR3_Explicit
$ 1 2
$ 1 5
$ 1 7
$ 2 6
$ 3 4
$ 3 6
$ 4 5
$ 5 6

letting fin1 be 8
